110934
26,32,15,10,39,81,74,37,1,29,34,27,78,5,60,14,77,68,24,41,54,22,11,2,56,42,59,46,80,71,50,55,16,73,31,57,76,8,70,65,35,25,69,61,79,44,45,53,20,47,23,30,18,4,21,43,67,58,52,7,82,62,38,40,51,3,49,64,17,36,12,72,63,0,9,28,13,75,66,19,48,33,6
